17	4
24	10	22	15	
0	0	0	0	0	3	2	3	4	
6	0	1	9	2	3	7	9	17	
10	2	0	0	0	2	5	11	
8	0	0	5	8	3	10	17	17	
3	0	3	6	8	3	6	8	17	
25	10	0	0	0	2	16	17	
200	5	0	10	1	2	17	17	
250	2	0	3	0	3	12	14	16	
25	0	2	5	8	3	11	17	17	
225	4	0	0	0	1	12	
100	0	1	5	0	1	17	
250	0	1	10	9	3	13	15	17	
4	9	0	6	0	3	17	17	17	
9	3	0	0	1	1	17	
5	1	0	2	7	1	17	
3	9	0	2	0	3	17	17	17	
0	0	0	0	0	0	
